&control
   calculation = 'scf'
   restart_mode = 'from_scratch'
   forc_conv_thr = 3.0d-4
   tstress = .true.
   tprnfor = .true.
   pseudo_dir = './' 
!   lberry = .true.
!   gdir = 3
!   nppstr = 8
/
&system
    ibrav= 0  
    celldm(1) = 7.28330256917748
    nat= 5
    ntyp= 3 
    ecutwfc = 50
    nosym = .true.
!    nspin = 2     ! 1 = non-polarized 2 = spin-polarized
!    occupations = 'smearing'
!    smearing = 'methfessel-paxton'
!    degauss = 0.02
!    starting_magnetization(1) = 2
!    starting_magnetization(2) = -2
/
&electrons
    electron_maxstep = 100
    mixing_beta = 0.7
    conv_thr = 1.0d-8
/
&ions
/
&cell
    cell_factor = 3.0d0
/

ATOMIC_SPECIES
Pb  207.2    Pb.pz-d-van.UPF
Ti  47.867   022-Ti-ca-sp-vgrp_serge.uspp
O   16.00    O_ps.uspp.UPF

ATOMIC_POSITIONS {crystal}
Pb       0.000000000   0.000000000   0.116048420
Ti       0.500000000   0.500000000   0.582689304
O        0.000000000   0.500000000   0.513079596
O        0.500000000   0.000000000   0.513079596
O        0.500000000   0.500000000   0.025103083

K_POINTS automatic
4 4 4 0 0 0

CELL_PARAMETERS {alat}
1.00 0.00 0.00
0.00 1.00 0.00
0.00 0.00 1.04661740543287
